p wcnf 41 62 10
5 -1 0
5 -2 0
5 -3 0
5 -4 0
5 -5 0
5 -6 0
5 -7 0
5 -8 0
5 -9 0
5 -10 0
5 -11 0
5 -12 0
5 -13 0
5 -14 0
5 -15 0
5 -16 0
5 -17 0
5 -18 0
5 -19 0
5 -20 0
5 -21 0
5 -22 0
5 -23 0
5 -24 0
5 -25 0
5 -26 0
5 -27 0
5 -28 0
5 -29 0
5 -30 0
5 -31 0
5 -32 0
5 -33 0
5 -34 0
5 -35 0
5 -36 0
5 -37 0
5 -38 0
5 -39 0
5 -40 0
10 1 2 3 4 5 6 7 8 9 10 11 12 13 14 15 16 17 18 19 20 21 22 23 24 25 26 27 28 29 30 31 32 33 34 35 36 37 38 39 40 0
10 41 0
x 10 1 21 22 24 25 27 29 30 33 35 37 39 41 0
x 10 2 21 25 30 31 32 34 38 39 40 41 0
x 10 3 22 27 29 30 32 33 41 0
x 10 4 21 22 23 25 33 35 38 40 41 0
x 10 5 21 22 28 30 33 34 35 36 37 38 40 41 0
x 10 6 21 24 25 28 29 30 32 33 34 35 38 40 41 0
x 10 7 21 22 23 24 25 27 29 31 32 34 35 38 40 41 0
x 10 8 21 22 23 26 27 28 29 31 36 37 38 41 0
x 10 9 21 22 27 29 30 31 32 33 34 35 36 37 38 41 0
x 10 10 23 26 33 36 37 39 41 0
x 10 11 23 25 28 29 30 32 34 35 36 41 0
x 10 12 21 27 28 29 35 39 40 41 0
x 10 13 22 23 28 29 30 36 38 39 40 41 0
x 10 14 24 25 28 30 32 33 34 35 38 40 41 0
x 10 15 21 22 23 24 27 28 33 35 36 38 41 0
x 10 16 22 23 25 28 33 39 40 41 0
x 10 17 21 25 26 27 29 30 33 34 36 37 39 40 41 0
x 10 18 22 23 24 27 30 31 34 35 37 38 39 40 41 0
x 10 19 23 24 27 28 30 31 32 33 34 36 37 40 41 0
x 10 20 21 24 30 32 34 38 40 41 0
